3 3 2
20 0 192 2 116 0 62 1 45 2 4 0 151 2 171 1 164 2 165 1 119 0 121 1 13 0 68 1 94 2 74 0 146 2 116 0 91 1 46 0 72 
20 2 37 1 50 0 136 1 47 2 93 0 114 1 192 2 59 0 84 2 25 1 181 0 190 1 12 2 43 1 187 0 1 2 38 1 190 2 1 0 93 
20 1 116 2 43 1 19 2 32 0 43 2 10 1 105 2 179 0 118 1 178 0 156 2 38 1 139 2 141 0 181 2 85 0 125 2 22 0 193 2 143 

-------------
